c Created with the Wolfram Language : www.wolfram.com
c 
p edge 90 416
e 3 8
e 7 9
e 8 9
e 3 11
e 2 12
e 3 12
e 5 12
e 3 15
e 4 15
e 6 15
e 7 15
e 8 15
e 6 16
e 9 16
e 11 16
e 14 16
e 4 18
e 9 18
e 12 19
e 11 21
e 12 21
e 16 21
e 2 22
e 3 22
e 20 22
e 12 23
e 13 23
e 8 24
e 9 24
e 12 24
e 15 24
e 18 24
e 4 25
e 9 25
e 19 25
e 22 25
e 3 26
e 4 26
e 5 26
e 19 26
e 3 27
e 9 27
e 21 27
e 6 28
e 8 28
e 18 28
e 1 29
e 18 29
e 23 29
e 7 30
e 19 30
e 27 30
e 2 31
e 26 31
e 2 32
e 4 32
e 6 32
e 27 32
e 4 33
e 12 33
e 21 33
e 23 33
e 28 33
e 31 33
e 2 34
e 5 34
e 24 34
e 31 34
e 1 35
e 27 35
e 34 35
e 4 36
e 28 36
e 1 37
e 10 37
e 19 37
e 25 37
e 30 37
e 3 38
e 6 38
e 12 38
e 36 38
e 37 38
e 6 39
e 7 39
e 28 39
e 18 40
e 33 40
e 37 40
e 15 41
e 23 41
e 24 41
e 34 41
e 17 42
e 24 42
e 31 42
e 35 42
e 21 43
e 27 43
e 34 43
e 41 43
e 13 44
e 14 44
e 23 44
e 32 44
e 2 45
e 5 45
e 9 45
e 30 45
e 7 46
e 9 46
e 21 46
e 37 46
e 45 46
e 14 47
e 16 47
e 43 47
e 1 48
e 14 48
e 41 48
e 45 48
e 14 49
e 37 49
e 5 50
e 19 50
e 24 50
e 26 50
e 36 50
e 46 50
e 47 50
e 7 51
e 9 51
e 12 51
e 15 51
e 19 51
e 25 51
e 30 51
e 34 51
e 35 51
e 39 51
e 40 51
e 1 52
e 7 52
e 9 52
e 37 52
e 50 52
e 7 53
e 11 53
e 13 53
e 21 53
e 26 53
e 27 53
e 36 53
e 39 53
e 52 53
e 10 54
e 11 54
e 32 54
e 45 54
e 47 54
e 14 55
e 30 55
e 43 55
e 48 55
e 52 55
e 54 55
e 7 56
e 8 56
e 26 56
e 37 56
e 55 56
e 2 57
e 7 57
e 14 57
e 15 57
e 21 57
e 24 57
e 38 57
e 45 57
e 1 58
e 4 58
e 5 58
e 15 58
e 31 58
e 35 58
e 40 58
e 50 58
e 15 59
e 22 59
e 36 59
e 15 60
e 20 60
e 23 60
e 41 60
e 47 60
e 52 60
e 9 61
e 29 61
e 30 61
e 60 61
e 8 62
e 10 62
e 15 62
e 21 62
e 27 62
e 39 62
e 44 62
e 47 62
e 50 62
e 4 63
e 13 63
e 25 63
e 27 63
e 28 63
e 29 63
e 46 63
e 50 63
e 54 63
e 10 64
e 13 64
e 19 64
e 20 64
e 21 64
e 28 64
e 30 64
e 35 64
e 37 64
e 60 64
e 2 65
e 9 65
e 56 65
e 62 65
e 4 66
e 10 66
e 17 66
e 18 66
e 20 66
e 28 66
e 52 66
e 60 66
e 1 67
e 8 67
e 14 67
e 18 67
e 21 67
e 45 67
e 48 67
e 15 68
e 22 68
e 49 68
e 57 68
e 59 68
e 27 69
e 30 69
e 50 69
e 62 69
e 7 70
e 12 70
e 13 70
e 37 70
e 57 70
e 62 70
e 6 71
e 37 71
e 53 71
e 15 72
e 48 72
e 57 72
e 66 72
e 9 73
e 19 73
e 42 73
e 47 73
e 66 73
e 68 73
e 3 74
e 9 74
e 13 74
e 39 74
e 40 74
e 55 74
e 60 74
e 71 74
e 4 75
e 5 75
e 8 75
e 15 75
e 21 75
e 28 75
e 42 75
e 58 75
e 62 75
e 64 75
e 2 76
e 3 76
e 20 76
e 23 76
e 29 76
e 38 76
e 39 76
e 9 77
e 27 77
e 28 77
e 42 77
e 52 77
e 60 77
e 67 77
e 3 78
e 19 78
e 20 78
e 39 78
e 46 78
e 56 78
e 57 78
e 73 78
e 6 79
e 9 79
e 10 79
e 23 79
e 40 79
e 55 79
e 75 79
e 8 80
e 31 80
e 32 80
e 49 80
e 53 80
e 68 80
e 78 80
e 5 81
e 10 81
e 26 81
e 29 81
e 64 81
e 68 81
e 80 81
e 6 82
e 27 82
e 39 82
e 55 82
e 64 82
e 72 82
e 22 83
e 31 83
e 45 83
e 60 83
e 76 83
e 78 83
e 15 84
e 25 84
e 46 84
e 54 84
e 64 84
e 66 84
e 71 84
e 13 85
e 16 85
e 22 85
e 28 85
e 42 85
e 48 85
e 57 85
e 61 85
e 74 85
e 2 86
e 13 86
e 42 86
e 46 86
e 47 86
e 49 86
e 56 86
e 57 86
e 62 86
e 70 86
e 82 86
e 83 86
e 84 86
e 1 87
e 34 87
e 36 87
e 39 87
e 48 87
e 57 87
e 58 87
e 64 87
e 27 88
e 43 88
e 55 88
e 56 88
e 59 88
e 71 88
e 76 88
e 80 88
e 8 89
e 25 89
e 28 89
e 33 89
e 49 89
e 52 89
e 53 89
e 68 89
e 71 89
e 73 89
e 5 90
e 14 90
e 16 90
e 23 90
e 28 90
e 38 90
e 41 90
e 48 90
e 60 90
e 69 90
e 75 90
e 80 90
e 82 90
